StudentsNr = 10;
InstructorsNr = 58;
DaysNr = 1;
SlotsPerDay = 10;
AvailabilitySlotsLenght = 2;
RoomNr = 1;
ProgrammNr = 2;
DegreeNr = 2;
RolesNr = 4;
CoursesNr = 4;
InstructorsProgramm = [{1, 2}, {1}, {2}, {2}, {2}, {1, 2}, {2}, {2}, {1}, {1}, {2}, {1, 2}, {2}, {2}, {1}, {1}, {1}, {2}, {1, 2}, {2}, {2}, {2}, {1, 2}, {2}, {2}, {1, 2}, {2}, {1, 2}, {1, 2}, {1, 2}, {2}, {1}, {1}, {1, 2}, {1}, {1, 2}, {1}, {1}, {2}, {2}, {1}, {1, 2}, {1}, {1}, {1}, {2}, {1}, {2}, {2}, {1}, {1, 2}, {1}, {1}, {1}, {2}, {1, 2}, {1, 2}, {1}];
InstructorRolesPerProgramm = [|{15, 19, 44, 52, 54, 57, 58}, {2, 9, 23, 30, 33, 36, 42, 52, 54, 58}, {10, 29, 32, 35, 37, 42, 43, 58}, {1, 17, 23, 29, 35, 36, 43, 45, 57}|{8, 19, 20, 39, 48, 49, 57}, {3, 5, 7, 13, 14, 20, 22, 23, 24, 25, 27, 30, 31, 36, 42, 55}, {3, 7, 8, 13, 29, 31, 40, 42, 49}, {1, 7, 20, 21, 22, 23, 24, 25, 29, 36, 39, 40, 46, 57}|];
InstructorsAvailability = [|0, 0, 0, 1, 1, |1, 1, 1, 1, 1, |0, 0, 1, 1, 1, |1, 1, 0, 0, 1, |1, 1, 1, 0, 1, |1, 1, 0, 1, 1, |1, 1, 1, 1, 1, |0, 0, 0, 1, 1, |1, 1, 1, 1, 1, |1, 1, 1, 1, 0, |0, 0, 1, 1, 0, |0, 1, 1, 1, 1, |0, 0, 0, 1, 1, |1, 1, 1, 1, 0, |1, 1, 0, 0, 0, |0, 1, 1, 1, 1, |1, 1, 1, 1, 1, |0, 1, 0, 1, 1, |0, 0, 0, 0, 0, |0, 0, 0, 0, 0, |0, 1, 1, 1, 1, |1, 1, 1, 0, 0, |1, 1, 1, 1, 1, |0, 1, 0, 0, 1, |1, 1, 1, 1, 0, |1, 1, 1, 1, 1, |1, 1, 1, 1, 1, |1, 1, 1, 1, 1, |0, 1, 1, 1, 1, |0, 1, 1, 0, 1, |0, 1, 1, 1, 1, |1, 1, 0, 1, 1, |1, 1, 1, 1, 1, |1, 1, 1, 1, 0, |0, 1, 0, 0, 1, |1, 0, 1, 1, 1, |0, 0, 0, 0, 1, |0, 0, 1, 1, 1, |1, 1, 1, 1, 0, |1, 1, 1, 1, 1, |1, 1, 1, 0, 1, |0, 0, 1, 0, 1, |1, 1, 1, 1, 1, |1, 1, 1, 1, 1, |1, 1, 1, 1, 1, |0, 1, 1, 1, 1, |1, 1, 1, 1, 0, |1, 1, 1, 1, 1, |1, 1, 0, 1, 0, |1, 1, 1, 1, 0, |0, 0, 0, 1, 1, |1, 1, 1, 1, 0, |1, 1, 1, 1, 1, |1, 1, 1, 1, 1, |0, 1, 1, 1, 1, |0, 1, 1, 0, 1, |0, 0, 0, 0, 1, |0, 1, 1, 0, 1|];
StudentsProgramm = [1, 2, 2, 2, 2, 2, 2, 1, 1, 1];
StudentsDegree = [1, 2, 1, 2, 2, 1, 1, 1, 1, 2];
StudentsSupervisorId = [6, 36, 28, 55, 49, 29, 14, 26, 34, 47];
StudentsCourseIds = [{1, 2, 3}, {}, {2, 3, 4}, {}, {}, {1, 3, 4}, {1, 2, 3}, {1, 2, 4}, {2, 3, 4}, {}];
StudentsAvailability = [|1, 1, 1, 1, 1, |0, 1, 1, 1, 1, |0, 0, 1, 1, 1, |1, 1, 1, 1, 1, |0, 0, 1, 1, 1, |1, 1, 1, 1, 1, |0, 0, 0, 1, 1, |0, 1, 1, 1, 1, |1, 1, 1, 1, 1, |0, 1, 1, 1, 1|];
TheoryticalMinCard = [0, 0, 0, 0, 0, 0, 0, 1, 0, 1];
CoursesInstructorIds = [{6, 13, 14, 18, 19, 20, 25, 28, 31, 43, 48, 50, 53, 54, 56, 57}, {1, 2, 3, 7, 8, 14, 15, 21, 23, 30, 32, 42, 45, 50, 54, 56}, {2, 3, 8, 9, 10, 11, 12, 13, 14, 15, 16, 20, 23, 26, 28, 30, 31, 33, 34, 38, 40, 41, 44, 46, 48, 49, 50, 51, 52, 54}, {4, 11, 15, 23, 29, 46}];
RolesDemands = [3, 5, 5, 4];
RolesContinuity = [2, 1];
ExamLen = [1, 2, 1, 2, 2, 1, 1, 1, 1, 2];
LunchTsMinLen = 0;
LunchStarts = [3..7];
SupervisorAvailable = 5;
OptimalLunchLenght = [0, 1];
OptimalStartTs = [1, 0];
OptimalFinishTs = [2, 10];
MinimizeRooms = 500;
RolesSoftContinuity = [|1, 2, 3, 4|3, 4, 0, 3|];
SameDegreeInRoom = 20;
Mergeability = 0;
